p cnf 43 46
-1 20 31 34 -35 -4 0 
-2 34 -35 -4 0 
-3 14 35 0 
-4 36 -35 0 
-5 35 0 
-6 35 0 
-7 12 35 0 
-8 13 35 0 
-9 22 35 0 
-10 35 0 
-11 35 0 
-2 35 0 
-12 7 -13 8 37 -35 0 
-14 3 35 0 
-15 21 24 36 -35 0 
-15 21 24 37 -35 0 
-16 35 0 
-17 38 -35 0 
-15 21 24 34 -35 -4 0 
-18 19 28 34 -35 -4 0 
-8 13 -19 18 28 39 -35 -33 0 
-20 1 31 -19 18 28 34 -35 -4 0 
-19 18 28 -21 15 24 34 -35 -4 0 
-19 18 28 -20 1 31 34 -35 -4 0 
-19 18 28 -20 1 31 39 -35 -33 0 
-12 7 -19 18 28 39 -35 -33 0 
-22 9 -19 18 28 34 -35 -4 0 
-19 18 28 -23 34 -35 -4 0 
-20 1 31 -24 15 21 34 -35 -4 0 
-19 18 28 -5 34 -35 -4 0 
-18 19 28 -25 34 -35 -4 0 
-18 19 28 -26 -27 34 -35 -4 0 
-28 18 19 34 -35 -4 0 
-22 9 -13 8 37 -35 0 
-8 13 38 -35 0 
-20 1 31 38 -35 0 
-29 -23 40 -35 0 
-30 -5 38 -35 0 
-10 -31 1 20 40 -35 0 
-18 19 28 -32 34 -35 -4 0 
-5 41 -35 0 
-12 7 42 -35 0 
-10 41 -35 0 
-22 9 37 -35 0 
-33 37 -35 0 
-12 7 43 -35 0 
